ws_caric/src/star_planner/utils/lkh_tsp_solver/resource/sentosa_single.tsp
NAME : single
TYPE : ATSP
DIMENSION : 6
EDGE_WEIGHT_TYPE : EXPLICIT
EDGE_WEIGHT_FORMAT : FULL_MATRIX
EDGE_WEIGHT_SECTION
0 694 629 862 1194 0 
10000000 0 151 174 405 543 
10000000 151 0 250 502 575 
10000000 174 250 0 279 408 
10000000 405 502 279 0 266 
0 10000000 10000000 10000000 10000000 0 
EOF