ws_caric/src/star_planner/utils/lkh_tsp_solver/resource/sentosa_single.txt
NAME : single.1499.tour
COMMENT : Length = 1499
COMMENT : Found by LKH [Keld Helsgaun] Tue Nov 21 16:28:54 2023
TYPE : TOUR
DIMENSION : 6
TOUR_SECTION
1
3
2
4
5
6
-1
EOF
